NAME          COPTPROB
OBJSENSE
  MIN
ROWS
 N  __OBJ___
 L  C0      
 L  C1      
 L  C3      
 L  C4      
 L  C5      
 L  C10     
 L  C11     
 L  C13     
 L  C14     
 L  C16     
 L  C17     
 L  C19     
 L  C22     
 L  C23     
 L  C24     
 L  C26     
 L  C27     
 L  C28     
 L  C29     
 L  C32     
 L  C33     
 L  C35     
 L  C36     
 L  C39     
 L  C42     
 L  C46     
 L  C47     
 L  C48     
 L  C49     
 L  C51     
 L  C54     
 L  C55     
 L  C58     
 L  C59     
 L  C62     
 L  C66     
 L  C67     
 L  C68     
 L  C70     
 L  C72     
 L  C73     
 L  C74     
 L  C75     
 L  C81     
 L  C82     
 L  C84     
 L  C85     
 L  C86     
 L  C87     
 L  C92     
 L  C93     
 L  C94     
 L  C98     
 L  C99     
 L  C109    
 L  C110    
 L  C111    
 L  C112    
 L  C113    
 L  C115    
 L  C116    
 L  C118    
 L  C119    
 L  C120    
 L  C121    
 L  C123    
 L  C126    
 L  C128    
 L  C129    
 L  C131    
 L  C133    
 L  C134    
 L  C135    
 L  C137    
 L  C139    
 L  C140    
 L  C149    
 L  C151    
 L  C154    
 L  C155    
 L  C156    
 L  C157    
 L  C158    
 L  C159    
 L  C160    
 L  C161    
 L  C162    
 L  C167    
 L  C168    
 L  C169    
 L  C170    
 L  C171    
 L  C174    
 L  C177    
 L  C178    
 L  C179    
 L  C180    
 L  C181    
 L  C184    
 L  C187    
 L  C188    
 L  C191    
 L  C193    
 L  C194    
 L  C195    
 L  C197    
 L  C199    
 L  C201    
 L  C202    
 L  C203    
 L  C208    
 L  C209    
 L  C210    
 L  C211    
 L  C212    
 L  C214    
 L  C215    
 L  C218    
 L  C219    
 L  C220    
 L  C221    
 L  C222    
 L  C223    
 L  C224    
 L  C225    
 L  C226    
 L  C227    
 L  C228    
 L  C230    
 L  C232    
 L  C233    
 L  C234    
 L  C239    
 L  C240    
 L  C243    
 L  C245    
 L  C247    
 L  C251    
 L  C254    
 L  C255    
 L  C256    
 L  C257    
 L  C260    
 L  C262    
 L  C263    
 L  C266    
 L  C267    
 L  C268    
 L  C271    
 L  C272    
 L  C277    
 L  C278    
 L  C280    
 L  C281    
 L  C282    
 L  C284    
 L  C285    
 L  C286    
 L  C287    
 L  C288    
 L  C294    
 L  C295    
 L  C296    
 L  C297    
 L  C299    
 L  C300    
 L  C301    
 L  C302    
 L  C303    
 L  C304    
 L  C307    
 L  C308    
 L  C312    
 L  C314    
 L  C315    
 L  C317    
 L  C319    
 L  C320    
 L  C321    
 L  C322    
 L  C323    
 L  C325    
 L  C326    
 L  C327    
 L  C332    
 L  C333    
 L  C335    
 L  C337    
 L  C338    
 L  C339    
 L  C340    
 L  C350    
 L  C351    
 L  C352    
 L  C355    
 L  C356    
 L  C359    
 L  C360    
 L  C361    
 L  C362    
 L  C363    
 L  C364    
 L  C367    
 L  C368    
 L  C369    
 L  C370    
 L  C371    
 L  C373    
 L  C374    
 L  C376    
 L  C378    
 L  C379    
 L  C380    
 L  C383    
 L  C387    
 L  C388    
 L  C389    
 L  C390    
 L  C393    
 L  C394    
 L  C396    
 L  C398    
 L  C399    
COLUMNS
    MARKER    'MARKER'                 'INTORG'
    x1        __OBJ___  896
    x1        C154      -1
    x1        C208      -1
    x1        C267      -1
    x1        C333      -1
    x2        __OBJ___  642
    x2        C19       -1
    x2        C67       -1
    x2        C149      -1
    x2        C222      -1
    x2        C361      -1
    x4        __OBJ___  532
    x4        C68       -1
    x4        C134      -1
    x4        C195      -1
    x4        C220      -1
    x6        __OBJ___  611
    x6        C243      -1
    x6        C251      -1
    x8        __OBJ___  839
    x8        C247      -1
    x8        C296      -1
    x8        C351      -1
    x8        C368      -1
    x9        __OBJ___  158
    x9        C109      -1
    x9        C277      -1
    x10       __OBJ___  523
    x10       C170      -1
    x10       C188      -1
    x10       C284      -1
    x10       C307      -1
    x11       __OBJ___  875
    x11       C199      -1
    x11       C355      -1
    x11       C379      -1
    x13       __OBJ___  394
    x13       C93       -1
    x13       C133      -1
    x13       C332      -1
    x13       C393      -1
    x14       __OBJ___  196
    x14       C5        -1
    x14       C135      -1
    x14       C260      -1
    x14       C278      -1
    x14       C315      -1
    x17       __OBJ___  394
    x17       C3        -1
    x17       C84       -1
    x17       C113      -1
    x17       C218      -1
    x17       C254      -1
    x17       C263      -1
    x17       C359      -1
    x20       __OBJ___  418
    x20       C160      -1
    x20       C212      -1
    x23       __OBJ___  178
    x23       C27       -1
    x23       C36       -1
    x23       C169      -1
    x23       C214      -1
    x23       C256      -1
    x24       __OBJ___  177
    x24       C92       -1
    x24       C123      -1
    x24       C282      -1
    x26       __OBJ___  351
    x26       C110      -1
    x26       C119      -1
    x26       C337      -1
    x29       __OBJ___  133
    x29       C22       -1
    x29       C308      -1
    x29       C314      -1
    x29       C398      -1
    x31       __OBJ___  366
    x31       C230      -1
    x31       C321      -1
    x31       C356      -1
    x31       C383      -1
    x33       __OBJ___  746
    x33       C179      -1
    x33       C326      -1
    x33       C387      -1
    x35       __OBJ___  320
    x35       C51       -1
    x35       C98       -1
    x35       C129      -1
    x35       C300      -1
    x35       C363      -1
    x36       __OBJ___  353
    x36       C26       -1
    x36       C201      -1
    x38       __OBJ___  17
    x38       C46       -1
    x38       C94       -1
    x41       __OBJ___  521
    x41       C131      -1
    x41       C221      -1
    x41       C303      -1
    x41       C319      -1
    x43       __OBJ___  127
    x43       C59       -1
    x43       C225      -1
    x43       C232      -1
    x46       __OBJ___  434
    x46       C171      -1
    x46       C389      -1
    x47       __OBJ___  250
    x47       C66       -1
    x47       C137      -1
    x47       C219      -1
    x48       __OBJ___  963
    x48       C168      -1
    x48       C317      -1
    x49       __OBJ___  887
    x49       C13       -1
    x49       C28       -1
    x49       C29       -1
    x49       C42       -1
    x49       C85       -1
    x50       __OBJ___  246
    x50       C74       -1
    x50       C81       -1
    x50       C388      -1
    x51       __OBJ___  621
    x51       C48       -1
    x51       C202      -1
    x51       C295      -1
    x51       C374      -1
    x52       __OBJ___  886
    x52       C24       -1
    x52       C181      -1
    x52       C187      -1
    x52       C369      -1
    x52       C390      -1
    x54       __OBJ___  686
    x54       C35       -1
    x54       C86       -1
    x54       C180      -1
    x54       C239      -1
    x54       C288      -1
    x55       __OBJ___  920
    x55       C301      -1
    x55       C304      -1
    x55       C323      -1
    x56       __OBJ___  985
    x56       C16       -1
    x56       C126      -1
    x56       C340      -1
    x56       C360      -1
    x56       C370      -1
    x58       __OBJ___  167
    x58       C73       -1
    x58       C139      -1
    x58       C380      -1
    x58       C399      -1
    x59       __OBJ___  177
    x59       C49       -1
    x59       C339      -1
    x62       __OBJ___  588
    x62       C156      -1
    x62       C194      -1
    x62       C271      -1
    x63       __OBJ___  423
    x63       C39       -1
    x63       C255      -1
    x66       __OBJ___  264
    x66       C70       -1
    x66       C111      -1
    x66       C121      -1
    x66       C155      -1
    x66       C338      -1
    x68       __OBJ___  350
    x68       C0        -1
    x68       C115      -1
    x68       C162      -1
    x68       C203      -1
    x68       C371      -1
    x68       C394      -1
    x69       __OBJ___  449
    x69       C210      -1
    x69       C215      -1
    x69       C299      -1
    x70       __OBJ___  288
    x70       C87       -1
    x70       C297      -1
    x70       C350      -1
    x70       C396      -1
    x72       __OBJ___  170
    x72       C10       -1
    x72       C72       -1
    x76       __OBJ___  536
    x76       C167      -1
    x76       C178      -1
    x76       C272      -1
    x76       C312      -1
    x76       C327      -1
    x79       __OBJ___  939
    x79       C116      -1
    x79       C191      -1
    x80       __OBJ___  359
    x80       C11       -1
    x80       C302      -1
    x81       __OBJ___  365
    x81       C234      -1
    x81       C287      -1
    x81       C335      -1
    x81       C373      -1
    x82       __OBJ___  210
    x82       C55       -1
    x82       C161      -1
    x84       __OBJ___  330
    x84       C58       -1
    x84       C62       -1
    x84       C197      -1
    x84       C294      -1
    x84       C378      -1
    x86       __OBJ___  125
    x86       C4        -1
    x86       C151      -1
    x86       C159      -1
    x86       C352      -1
    x87       __OBJ___  60
    x87       C120      -1
    x87       C325      -1
    x89       __OBJ___  403
    x89       C211      -1
    x89       C262      -1
    x89       C364      -1
    x90       __OBJ___  704
    x90       C193      -1
    x90       C226      -1
    x90       C227      -1
    x90       C257      -1
    x90       C268      -1
    x90       C376      -1
    x92       __OBJ___  197
    x92       C1        -1
    x92       C157      -1
    x95       __OBJ___  211
    x95       C223      -1
    x95       C240      -1
    x95       C245      -1
    x98       __OBJ___  181
    x98       C320      -1
    x98       C367      -1
    x99       __OBJ___  430
    x99       C23       -1
    x99       C33       -1
    x99       C158      -1
    x99       C286      -1
    x99       C362      -1
    x101      __OBJ___  236
    x101      C218      -1
    x103      __OBJ___  512
    x103      C171      -1
    x103      C278      -1
    x103      C315      -1
    x107      __OBJ___  401
    x107      C188      -1
    x107      C272      -1
    x109      __OBJ___  939
    x109      C158      -1
    x109      C174      -1
    x109      C278      -1
    x109      C367      -1
    x113      __OBJ___  360
    x113      C116      -1
    x113      C179      -1
    x113      C364      -1
    x115      __OBJ___  242
    x115      C222      -1
    x115      C228      -1
    x115      C359      -1
    x115      C393      -1
    x120      __OBJ___  444
    x120      C54       -1
    x120      C155      -1
    x120      C339      -1
    x121      __OBJ___  879
    x121      C151      -1
    x121      C195      -1
    x121      C388      -1
    x122      __OBJ___  344
    x122      C24       -1
    x122      C84       -1
    x122      C323      -1
    x123      __OBJ___  605
    x123      C73       -1
    x123      C156      -1
    x123      C177      -1
    x123      C302      -1
    x123      C376      -1
    x124      __OBJ___  36
    x124      C230      -1
    x124      C281      -1
    x125      __OBJ___  198
    x125      C66       -1
    x125      C154      -1
    x126      __OBJ___  139
    x126      C280      -1
    x126      C294      -1
    x126      C297      -1
    x127      __OBJ___  206
    x127      C118      -1
    x127      C197      -1
    x130      __OBJ___  573
    x130      C55       -1
    x130      C321      -1
    x134      __OBJ___  38
    x134      C111      -1
    x134      C112      -1
    x138      __OBJ___  28
    x138      C62       -1
    x138      C110      -1
    x138      C374      -1
    x138      C398      -1
    x140      __OBJ___  153
    x140      C360      -1
    x142      __OBJ___  286
    x142      C219      -1
    x142      C371      -1
    x143      __OBJ___  530
    x143      C121      -1
    x143      C322      -1
    x145      __OBJ___  335
    x145      C42       -1
    x145      C362      -1
    x145      C376      -1
    x147      __OBJ___  300
    x147      C3        -1
    x147      C72       -1
    x147      C109      -1
    x147      C155      -1
    x147      C215      -1
    x148      __OBJ___  130
    x148      C210      -1
    x148      C315      -1
    x150      __OBJ___  238
    x150      C66       -1
    x150      C228      -1
    x150      C256      -1
    x150      C393      -1
    x152      __OBJ___  495
    x152      C223      -1
    x152      C233      -1
    x152      C247      -1
    x153      __OBJ___  495
    x153      C180      -1
    x153      C320      -1
    x153      C362      -1
    x154      __OBJ___  140
    x154      C14       -1
    x154      C254      -1
    x157      __OBJ___  452
    x157      C86       -1
    x157      C99       -1
    x157      C184      -1
    x157      C322      -1
    x157      C361      -1
    x157      C389      -1
    x162      __OBJ___  169
    x162      C29       -1
    x162      C58       -1
    x162      C232      -1
    x163      __OBJ___  150
    x163      C367      -1
    x168      __OBJ___  288
    x168      C128      -1
    x168      C187      -1
    x168      C327      -1
    x170      __OBJ___  390
    x170      C10       -1
    x170      C27       -1
    x170      C135      -1
    x170      C178      -1
    x170      C223      -1
    x170      C284      -1
    x170      C398      -1
    x174      __OBJ___  154
    x174      C82       -1
    x174      C352      -1
    x174      C374      -1
    x175      __OBJ___  595
    x175      C67       -1
    x175      C151      -1
    x175      C360      -1
    x177      __OBJ___  269
    x177      C5        -1
    x177      C29       -1
    x177      C210      -1
    x177      C398      -1
    x179      __OBJ___  109
    x179      C129      -1
    x179      C137      -1
    x179      C219      -1
    x180      __OBJ___  432
    x180      C93       -1
    x180      C118      -1
    x180      C203      -1
    x187      __OBJ___  396
    x187      C208      -1
    x187      C215      -1
    x187      C255      -1
    x187      C308      -1
    x187      C378      -1
    x188      __OBJ___  21
    x188      C376      -1
    x189      __OBJ___  283
    x189      C14       -1
    x189      C29       -1
    x189      C361      -1
    x190      __OBJ___  482
    x190      C33       -1
    x190      C156      -1
    x190      C268      -1
    x191      __OBJ___  545
    x191      C168      -1
    x191      C267      -1
    x191      C394      -1
    x192      __OBJ___  65
    x192      C394      -1
    x193      __OBJ___  27
    x193      C374      -1
    x194      __OBJ___  232
    x194      C1        -1
    x194      C109      -1
    x194      C277      -1
    x196      __OBJ___  764
    x196      C19       -1
    x196      C191      -1
    x198      __OBJ___  69
    x198      C254      -1
    x198      C281      -1
    x199      __OBJ___  809
    x199      C24       -1
    x199      C118      -1
    x199      C177      -1
    x199      C268      -1
    x199      C350      -1
    x199      C376      -1
    x201      __OBJ___  323
    x201      C16       -1
    x201      C312      -1
    x204      __OBJ___  246
    x204      C120      -1
    x204      C239      -1
    x204      C262      -1
    x204      C268      -1
    x206      __OBJ___  513
    x206      C19       -1
    x206      C226      -1
    x211      __OBJ___  215
    x211      C0        -1
    x211      C48       -1
    x211      C256      -1
    x212      __OBJ___  516
    x212      C74       -1
    x212      C85       -1
    x212      C181      -1
    x212      C394      -1
    x213      __OBJ___  931
    x213      C75       -1
    x213      C159      -1
    x213      C297      -1
    x213      C322      -1
    x217      __OBJ___  114
    x217      C194      -1
    x217      C285      -1
    x217      C288      -1
    x217      C374      -1
    x218      __OBJ___  702
    x218      C179      -1
    x218      C220      -1
    x218      C267      -1
    x219      __OBJ___  256
    x219      C62       -1
    x219      C211      -1
    x219      C361      -1
    x221      __OBJ___  59
    x221      C17       -1
    x221      C177      -1
    x221      C303      -1
    x222      __OBJ___  546
    x222      C19       -1
    x222      C193      -1
    x222      C301      -1
    x222      C389      -1
    x222      C398      -1
    x225      __OBJ___  614
    x225      C128      -1
    x225      C155      -1
    x225      C335      -1
    x225      C398      -1
    x226      __OBJ___  737
    x226      C197      -1
    x226      C221      -1
    x226      C287      -1
    x226      C322      -1
    x227      __OBJ___  279
    x227      C49       -1
    x227      C233      -1
    x227      C394      -1
    x229      __OBJ___  559
    x229      C232      -1
    x229      C319      -1
    x231      __OBJ___  865
    x231      C81       -1
    x231      C251      -1
    x231      C323      -1
    x231      C393      -1
    x234      __OBJ___  693
    x234      C59       -1
    x234      C168      -1
    x234      C197      -1
    x237      __OBJ___  622
    x237      C26       -1
    x237      C49       -1
    x237      C54       -1
    x237      C212      -1
    x237      C296      -1
    x238      __OBJ___  927
    x238      C22       -1
    x238      C49       -1
    x238      C214      -1
    x238      C245      -1
    x238      C262      -1
    x238      C282      -1
    x239      __OBJ___  934
    x239      C55       -1
    x239      C154      -1
    x239      C267      -1
    x241      __OBJ___  501
    x241      C224      -1
    x241      C304      -1
    x241      C332      -1
    x241      C387      -1
    x243      __OBJ___  89
    x243      C17       -1
    x243      C82       -1
    x243      C167      -1
    x244      __OBJ___  688
    x244      C169      -1
    x244      C234      -1
    x244      C323      -1
    x244      C379      -1
    x245      __OBJ___  335
    x245      C211      -1
    x245      C277      -1
    x245      C284      -1
    x245      C320      -1
    x246      __OBJ___  701
    x246      C85       -1
    x246      C156      -1
    x246      C187      -1
    x246      C247      -1
    x247      __OBJ___  95
    x247      C271      -1
    x247      C396      -1
    x249      __OBJ___  82
    x249      C70       -1
    x249      C266      -1
    x249      C299      -1
    x251      __OBJ___  43
    x251      C68       -1
    x251      C224      -1
    x251      C230      -1
    x252      __OBJ___  955
    x252      C32       -1
    x252      C98       -1
    x252      C286      -1
    x254      __OBJ___  658
    x254      C94       -1
    x254      C266      -1
    x254      C288      -1
    x254      C296      -1
    x255      __OBJ___  103
    x255      C4        -1
    x255      C23       -1
    x255      C99       -1
    x255      C188      -1
    x255      C225      -1
    x256      __OBJ___  436
    x256      C139      -1
    x256      C307      -1
    x256      C350      -1
    x256      C364      -1
    x257      __OBJ___  917
    x257      C16       -1
    x257      C39       -1
    x257      C257      -1
    x257      C300      -1
    x260      __OBJ___  731
    x260      C47       -1
    x260      C75       -1
    x260      C240      -1
    x260      C370      -1
    x263      __OBJ___  836
    x263      C82       -1
    x263      C294      -1
    x263      C296      -1
    x264      __OBJ___  948
    x264      C214      -1
    x264      C228      -1
    x264      C322      -1
    x264      C390      -1
    x266      __OBJ___  945
    x266      C51       -1
    x266      C199      -1
    x267      __OBJ___  228
    x267      C22       -1
    x267      C28       -1
    x267      C70       -1
    x267      C121      -1
    x267      C240      -1
    x269      __OBJ___  144
    x269      C47       -1
    x269      C139      -1
    x273      __OBJ___  282
    x273      C128      -1
    x277      __OBJ___  877
    x277      C67       -1
    x277      C268      -1
    x277      C277      -1
    x277      C388      -1
    x281      __OBJ___  477
    x281      C5        -1
    x281      C87       -1
    x281      C140      -1
    x281      C167      -1
    x281      C193      -1
    x281      C287      -1
    x282      __OBJ___  198
    x282      C5        -1
    x282      C135      -1
    x282      C288      -1
    x283      __OBJ___  591
    x283      C209      -1
    x283      C251      -1
    x283      C260      -1
    x288      __OBJ___  457
    x288      C170      -1
    x288      C174      -1
    x288      C352      -1
    x288      C394      -1
    x289      __OBJ___  84
    x289      C49       -1
    x289      C139      -1
    x290      __OBJ___  386
    x290      C35       -1
    x290      C98       -1
    x290      C338      -1
    x293      __OBJ___  983
    x293      C16       -1
    x293      C168      -1
    x293      C266      -1
    x293      C272      -1
    x293      C363      -1
    x296      __OBJ___  494
    x296      C126      -1
    x296      C228      -1
    x297      __OBJ___  932
    x297      C42       -1
    x297      C184      -1
    x297      C362      -1
    x298      __OBJ___  270
    x298      C54       -1
    x298      C333      -1
    x299      __OBJ___  32
    x299      C239      -1
    x299      C356      -1
    x301      __OBJ___  118
    x301      C203      -1
    x302      __OBJ___  686
    x302      C54       -1
    x302      C92       -1
    x302      C319      -1
    x305      __OBJ___  415
    x305      C13       -1
    x305      C326      -1
    x307      __OBJ___  216
    x307      C135      -1
    x307      C228      -1
    x309      __OBJ___  380
    x309      C42       -1
    x309      C245      -1
    x310      __OBJ___  323
    x310      C133      -1
    x311      __OBJ___  362
    x311      C67       -1
    x311      C214      -1
    x311      C263      -1
    x313      __OBJ___  545
    x313      C10       -1
    x313      C51       -1
    x313      C285      -1
    x315      __OBJ___  337
    x315      C115      -1
    x315      C157      -1
    x315      C162      -1
    x315      C243      -1
    x319      __OBJ___  105
    x319      C3        -1
    x319      C140      -1
    x319      C157      -1
    x324      __OBJ___  440
    x324      C174      -1
    x324      C262      -1
    x324      C301      -1
    x324      C338      -1
    x324      C373      -1
    x325      __OBJ___  990
    x325      C369      -1
    x325      C376      -1
    x325      C399      -1
    x326      __OBJ___  146
    x326      C47       -1
    x326      C160      -1
    x326      C379      -1
    x327      __OBJ___  459
    x327      C355      -1
    x328      __OBJ___  332
    x328      C48       -1
    x328      C135      -1
    x328      C208      -1
    x332      __OBJ___  380
    x332      C123      -1
    x332      C134      -1
    x332      C277      -1
    x332      C337      -1
    x334      __OBJ___  591
    x334      C36       -1
    x334      C162      -1
    x334      C326      -1
    x335      __OBJ___  995
    x335      C210      -1
    x335      C325      -1
    x335      C369      -1
    x337      __OBJ___  365
    x337      C29       -1
    x337      C39       -1
    x337      C380      -1
    x338      __OBJ___  392
    x338      C181      -1
    x338      C303      -1
    x338      C320      -1
    x339      __OBJ___  133
    x339      C35       -1
    x339      C129      -1
    x339      C134      -1
    x339      C202      -1
    x341      __OBJ___  174
    x341      C42       -1
    x341      C208      -1
    x341      C214      -1
    x341      C243      -1
    x342      __OBJ___  313
    x342      C3        -1
    x342      C368      -1
    x344      __OBJ___  800
    x344      C218      -1
    x344      C333      -1
    x344      C390      -1
    x345      __OBJ___  267
    x345      C137      -1
    x345      C219      -1
    x345      C314      -1
    x345      C332      -1
    x347      __OBJ___  389
    x347      C212      -1
    x347      C322      -1
    x349      __OBJ___  591
    x349      C134      -1
    x349      C245      -1
    x349      C287      -1
    x349      C317      -1
    x349      C361      -1
    x349      C368      -1
    x350      __OBJ___  724
    x350      C0        -1
    x350      C58       -1
    x350      C67       -1
    x350      C139      -1
    x350      C277      -1
    x351      __OBJ___  254
    x351      C46       -1
    x351      C208      -1
    x351      C278      -1
    x351      C280      -1
    x351      C338      -1
    x352      __OBJ___  430
    x352      C75       -1
    x352      C214      -1
    x352      C272      -1
    x352      C390      -1
    x356      __OBJ___  521
    x356      C119      -1
    x356      C359      -1
    x358      __OBJ___  303
    x358      C129      -1
    x358      C370      -1
    x358      C387      -1
    x359      __OBJ___  662
    x359      C240      -1
    x359      C286      -1
    x359      C383      -1
    x360      __OBJ___  678
    x360      C54       -1
    x360      C58       -1
    x360      C99       -1
    x360      C161      -1
    x360      C379      -1
    x362      __OBJ___  382
    x362      C307      -1
    x363      __OBJ___  222
    x363      C99       -1
    x363      C155      -1
    x364      __OBJ___  237
    x364      C74       -1
    x364      C373      -1
    x365      __OBJ___  164
    x365      C23       -1
    x365      C262      -1
    x366      __OBJ___  47
    x366      C179      -1
    x366      C227      -1
    x366      C263      -1
    x366      C378      -1
    x369      __OBJ___  252
    x369      C54       -1
    x369      C81       -1
    x369      C94       -1
    x369      C135      -1
    x369      C280      -1
    x369      C378      -1
    x370      __OBJ___  847
    x370      C131      -1
    x370      C327      -1
    x370      C332      -1
    x372      __OBJ___  959
    x372      C19       -1
    x372      C233      -1
    x372      C355      -1
    x374      __OBJ___  359
    x374      C115      -1
    x374      C133      -1
    x376      __OBJ___  792
    x376      C158      -1
    x376      C201      -1
    x376      C280      -1
    x377      __OBJ___  342
    x377      C27       -1
    x377      C160      -1
    x377      C282      -1
    x377      C340      -1
    x378      __OBJ___  912
    x378      C137      -1
    x378      C218      -1
    x378      C295      -1
    x378      C308      -1
    x382      __OBJ___  371
    x382      C112      -1
    x382      C129      -1
    x382      C193      -1
    x383      __OBJ___  265
    x383      C11       -1
    x383      C32       -1
    x383      C58       -1
    x383      C221      -1
    x384      __OBJ___  283
    x384      C219      -1
    x384      C351      -1
    x388      __OBJ___  134
    x388      C99       -1
    x388      C188      -1
    x388      C209      -1
    x388      C332      -1
    x388      C393      -1
    x391      __OBJ___  16
    x391      C113      -1
    x391      C149      -1
    x391      C202      -1
    x392      __OBJ___  761
    x392      C36       -1
    x392      C92       -1
    x392      C296      -1
    x392      C337      -1
    x394      __OBJ___  145
    x394      C85       -1
    x394      C179      -1
    x394      C197      -1
    x394      C228      -1
    x395      __OBJ___  156
    x395      C140      -1
    x395      C332      -1
    x395      C335      -1
    x397      __OBJ___  14
    x397      C84       -1
    x397      C256      -1
    x398      __OBJ___  264
    x398      C301      -1
    x398      C335      -1
    x398      C351      -1
    x399      __OBJ___  878
    x399      C68       -1
    x399      C128      -1
    x399      C212      -1
    x399      C332      -1
    x399      C389      -1
    MARKER    'MARKER'                 'INTEND'
RHS
    RHS       __OBJ___  -15907
    RHS       C0        -1
    RHS       C1        -1
    RHS       C3        -1
    RHS       C4        -1
    RHS       C5        -1
    RHS       C10       -1
    RHS       C11       -1
    RHS       C13       -1
    RHS       C14       -1
    RHS       C16       -1
    RHS       C17       -1
    RHS       C19       -1
    RHS       C22       -1
    RHS       C23       -1
    RHS       C24       -1
    RHS       C26       -1
    RHS       C27       -1
    RHS       C28       -1
    RHS       C29       -1
    RHS       C32       -1
    RHS       C33       -1
    RHS       C35       -1
    RHS       C36       -1
    RHS       C39       -1
    RHS       C42       -1
    RHS       C46       -1
    RHS       C47       -1
    RHS       C48       -1
    RHS       C49       -1
    RHS       C51       -1
    RHS       C54       -1
    RHS       C55       -1
    RHS       C58       -1
    RHS       C59       -1
    RHS       C62       -1
    RHS       C66       -1
    RHS       C67       -1
    RHS       C68       -1
    RHS       C70       -1
    RHS       C72       -1
    RHS       C73       -1
    RHS       C74       -1
    RHS       C75       -1
    RHS       C81       -1
    RHS       C82       -1
    RHS       C84       -1
    RHS       C85       -1
    RHS       C86       -1
    RHS       C87       -1
    RHS       C92       -1
    RHS       C93       -1
    RHS       C94       -1
    RHS       C98       -1
    RHS       C99       -1
    RHS       C109      -1
    RHS       C110      -1
    RHS       C111      -1
    RHS       C112      -1
    RHS       C113      -1
    RHS       C115      -1
    RHS       C116      -1
    RHS       C118      -1
    RHS       C119      -1
    RHS       C120      -1
    RHS       C121      -1
    RHS       C123      -1
    RHS       C126      -1
    RHS       C128      -1
    RHS       C129      -1
    RHS       C131      -1
    RHS       C133      -1
    RHS       C134      -1
    RHS       C135      -1
    RHS       C137      -1
    RHS       C139      -1
    RHS       C140      -1
    RHS       C149      -1
    RHS       C151      -1
    RHS       C154      -1
    RHS       C155      -1
    RHS       C156      -1
    RHS       C157      -1
    RHS       C158      -1
    RHS       C159      -1
    RHS       C160      -1
    RHS       C161      -1
    RHS       C162      -1
    RHS       C167      -1
    RHS       C168      -1
    RHS       C169      -1
    RHS       C170      -1
    RHS       C171      -1
    RHS       C174      -1
    RHS       C177      -1
    RHS       C178      -1
    RHS       C179      -1
    RHS       C180      -1
    RHS       C181      -1
    RHS       C184      -1
    RHS       C187      -1
    RHS       C188      -1
    RHS       C191      -1
    RHS       C193      -1
    RHS       C194      -1
    RHS       C195      -1
    RHS       C197      -1
    RHS       C199      -1
    RHS       C201      -1
    RHS       C202      -1
    RHS       C203      -1
    RHS       C208      -1
    RHS       C209      -1
    RHS       C210      -1
    RHS       C211      -1
    RHS       C212      -1
    RHS       C214      -1
    RHS       C215      -1
    RHS       C218      -1
    RHS       C219      -1
    RHS       C220      -1
    RHS       C221      -1
    RHS       C222      -1
    RHS       C223      -1
    RHS       C224      -1
    RHS       C225      -1
    RHS       C226      -1
    RHS       C227      -1
    RHS       C228      -1
    RHS       C230      -1
    RHS       C232      -1
    RHS       C233      -1
    RHS       C234      -1
    RHS       C239      -1
    RHS       C240      -1
    RHS       C243      -1
    RHS       C245      -1
    RHS       C247      -1
    RHS       C251      -1
    RHS       C254      -1
    RHS       C255      -1
    RHS       C256      -1
    RHS       C257      -1
    RHS       C260      -1
    RHS       C262      -1
    RHS       C263      -1
    RHS       C266      -1
    RHS       C267      -1
    RHS       C268      -1
    RHS       C271      -1
    RHS       C272      -1
    RHS       C277      -1
    RHS       C278      -1
    RHS       C280      -1
    RHS       C281      -1
    RHS       C282      -1
    RHS       C284      -1
    RHS       C285      -1
    RHS       C286      -1
    RHS       C287      -1
    RHS       C288      -1
    RHS       C294      -1
    RHS       C295      -1
    RHS       C296      -1
    RHS       C297      -1
    RHS       C299      -1
    RHS       C300      -1
    RHS       C301      -1
    RHS       C302      -1
    RHS       C303      -1
    RHS       C304      -1
    RHS       C307      -1
    RHS       C308      -1
    RHS       C312      -1
    RHS       C314      -1
    RHS       C315      -1
    RHS       C317      -1
    RHS       C319      -1
    RHS       C320      -1
    RHS       C321      -1
    RHS       C322      -1
    RHS       C323      -1
    RHS       C325      -1
    RHS       C326      -1
    RHS       C327      -1
    RHS       C332      -1
    RHS       C333      -1
    RHS       C335      -1
    RHS       C337      -1
    RHS       C338      -1
    RHS       C339      -1
    RHS       C340      -1
    RHS       C350      -1
    RHS       C351      -1
    RHS       C352      -1
    RHS       C355      -1
    RHS       C356      -1
    RHS       C359      -1
    RHS       C360      -1
    RHS       C361      -1
    RHS       C362      -1
    RHS       C363      -1
    RHS       C364      -1
    RHS       C367      -1
    RHS       C368      -1
    RHS       C369      -1
    RHS       C370      -1
    RHS       C371      -1
    RHS       C373      -1
    RHS       C374      -1
    RHS       C376      -1
    RHS       C378      -1
    RHS       C379      -1
    RHS       C380      -1
    RHS       C383      -1
    RHS       C387      -1
    RHS       C388      -1
    RHS       C389      -1
    RHS       C390      -1
    RHS       C393      -1
    RHS       C394      -1
    RHS       C396      -1
    RHS       C398      -1
    RHS       C399      -1
BOUNDS
 UP BOUND     x1        1
 UP BOUND     x2        1
 UP BOUND     x4        1
 UP BOUND     x6        1
 UP BOUND     x8        1
 UP BOUND     x9        1
 UP BOUND     x10       1
 UP BOUND     x11       1
 UP BOUND     x13       1
 UP BOUND     x14       1
 UP BOUND     x17       1
 UP BOUND     x20       1
 UP BOUND     x23       1
 UP BOUND     x24       1
 UP BOUND     x26       1
 UP BOUND     x29       1
 UP BOUND     x31       1
 UP BOUND     x33       1
 UP BOUND     x35       1
 UP BOUND     x36       1
 UP BOUND     x38       1
 UP BOUND     x41       1
 UP BOUND     x43       1
 UP BOUND     x46       1
 UP BOUND     x47       1
 UP BOUND     x48       1
 UP BOUND     x49       1
 UP BOUND     x50       1
 UP BOUND     x51       1
 UP BOUND     x52       1
 UP BOUND     x54       1
 UP BOUND     x55       1
 UP BOUND     x56       1
 UP BOUND     x58       1
 UP BOUND     x59       1
 UP BOUND     x62       1
 UP BOUND     x63       1
 UP BOUND     x66       1
 UP BOUND     x68       1
 UP BOUND     x69       1
 UP BOUND     x70       1
 UP BOUND     x72       1
 UP BOUND     x76       1
 UP BOUND     x79       1
 UP BOUND     x80       1
 UP BOUND     x81       1
 UP BOUND     x82       1
 UP BOUND     x84       1
 UP BOUND     x86       1
 UP BOUND     x87       1
 UP BOUND     x89       1
 UP BOUND     x90       1
 UP BOUND     x92       1
 UP BOUND     x95       1
 UP BOUND     x98       1
 UP BOUND     x99       1
 UP BOUND     x101      1
 UP BOUND     x103      1
 UP BOUND     x107      1
 UP BOUND     x109      1
 UP BOUND     x113      1
 UP BOUND     x115      1
 UP BOUND     x120      1
 UP BOUND     x121      1
 UP BOUND     x122      1
 UP BOUND     x123      1
 UP BOUND     x124      1
 UP BOUND     x125      1
 UP BOUND     x126      1
 UP BOUND     x127      1
 UP BOUND     x130      1
 UP BOUND     x134      1
 UP BOUND     x138      1
 UP BOUND     x140      1
 UP BOUND     x142      1
 UP BOUND     x143      1
 UP BOUND     x145      1
 UP BOUND     x147      1
 UP BOUND     x148      1
 UP BOUND     x150      1
 UP BOUND     x152      1
 UP BOUND     x153      1
 UP BOUND     x154      1
 UP BOUND     x157      1
 UP BOUND     x162      1
 UP BOUND     x163      1
 UP BOUND     x168      1
 UP BOUND     x170      1
 UP BOUND     x174      1
 UP BOUND     x175      1
 UP BOUND     x177      1
 UP BOUND     x179      1
 UP BOUND     x180      1
 UP BOUND     x187      1
 UP BOUND     x188      1
 UP BOUND     x189      1
 UP BOUND     x190      1
 UP BOUND     x191      1
 UP BOUND     x192      1
 UP BOUND     x193      1
 UP BOUND     x194      1
 UP BOUND     x196      1
 UP BOUND     x198      1
 UP BOUND     x199      1
 UP BOUND     x201      1
 UP BOUND     x204      1
 UP BOUND     x206      1
 UP BOUND     x211      1
 UP BOUND     x212      1
 UP BOUND     x213      1
 UP BOUND     x217      1
 UP BOUND     x218      1
 UP BOUND     x219      1
 UP BOUND     x221      1
 UP BOUND     x222      1
 UP BOUND     x225      1
 UP BOUND     x226      1
 UP BOUND     x227      1
 UP BOUND     x229      1
 UP BOUND     x231      1
 UP BOUND     x234      1
 UP BOUND     x237      1
 UP BOUND     x238      1
 UP BOUND     x239      1
 UP BOUND     x241      1
 UP BOUND     x243      1
 UP BOUND     x244      1
 UP BOUND     x245      1
 UP BOUND     x246      1
 UP BOUND     x247      1
 UP BOUND     x249      1
 UP BOUND     x251      1
 UP BOUND     x252      1
 UP BOUND     x254      1
 UP BOUND     x255      1
 UP BOUND     x256      1
 UP BOUND     x257      1
 UP BOUND     x260      1
 UP BOUND     x263      1
 UP BOUND     x264      1
 UP BOUND     x266      1
 UP BOUND     x267      1
 UP BOUND     x269      1
 UP BOUND     x273      1
 UP BOUND     x277      1
 UP BOUND     x281      1
 UP BOUND     x282      1
 UP BOUND     x283      1
 UP BOUND     x288      1
 UP BOUND     x289      1
 UP BOUND     x290      1
 UP BOUND     x293      1
 UP BOUND     x296      1
 UP BOUND     x297      1
 UP BOUND     x298      1
 UP BOUND     x299      1
 UP BOUND     x301      1
 UP BOUND     x302      1
 UP BOUND     x305      1
 UP BOUND     x307      1
 UP BOUND     x309      1
 UP BOUND     x310      1
 UP BOUND     x311      1
 UP BOUND     x313      1
 UP BOUND     x315      1
 UP BOUND     x319      1
 UP BOUND     x324      1
 UP BOUND     x325      1
 UP BOUND     x326      1
 UP BOUND     x327      1
 UP BOUND     x328      1
 UP BOUND     x332      1
 UP BOUND     x334      1
 UP BOUND     x335      1
 UP BOUND     x337      1
 UP BOUND     x338      1
 UP BOUND     x339      1
 UP BOUND     x341      1
 UP BOUND     x342      1
 UP BOUND     x344      1
 UP BOUND     x345      1
 UP BOUND     x347      1
 UP BOUND     x349      1
 UP BOUND     x350      1
 UP BOUND     x351      1
 UP BOUND     x352      1
 UP BOUND     x356      1
 UP BOUND     x358      1
 UP BOUND     x359      1
 UP BOUND     x360      1
 UP BOUND     x362      1
 UP BOUND     x363      1
 UP BOUND     x364      1
 UP BOUND     x365      1
 UP BOUND     x366      1
 UP BOUND     x369      1
 UP BOUND     x370      1
 UP BOUND     x372      1
 UP BOUND     x374      1
 UP BOUND     x376      1
 UP BOUND     x377      1
 UP BOUND     x378      1
 UP BOUND     x382      1
 UP BOUND     x383      1
 UP BOUND     x384      1
 UP BOUND     x388      1
 UP BOUND     x391      1
 UP BOUND     x392      1
 UP BOUND     x394      1
 UP BOUND     x395      1
 UP BOUND     x397      1
 UP BOUND     x398      1
 UP BOUND     x399      1
ENDATA
